32	0

0	3	4	3	2
8	3	7	8	9
1	2	5	6
2	2	5	6
1	3	7	8	9
6	3	7	8	9
7	1	10
8	2	12	13
6	2	10	11
1	2	12	13
3	1	12
7	2	14	15
8	2	14	15
1	1	16
5	3	18	19	20
3	1	17
1	3	18	19	20
10	2	21	25
10	2	21	25
5	2	21	25
1	1	22
3	1	23
3	1	24
1	3	26	27	30
10	3	26	27	30
1	1	28
6	1	29
3	1	29
1	1	31
7	1	31
1	1	32
0	0
